Route #1: 30
Route #2: 26 14 15 28 10
Route #3: 25 7 13 31
Route #4: 19
Route #5: 23 11 29
Route #6: 18 22 21 5 20 6 8
Route #7: 3 2
Route #8: 12
Route #9: 4 9 24
Route #10: 27
Route #11: 17 1 16

Cost: 2153.3167489165344
